(set-info :origin "SVCOMP13 benchmarks generated by Arie Gurfinkel")
(set-logic HORN)
(declare-fun cp-rel-entry () Bool)
(declare-fun cp-rel-ERROR () Bool)
(declare-fun cp-rel-NodeBlock32 (Bool Real Real Real) Bool)
(declare-fun cp-rel-end (Bool Real Real) Bool)
(declare-fun cp-rel-bb.outer (Bool Real Real) Bool)
(declare-fun cp-rel-bb.us (Bool Real Real Real) Bool)
(assert |cp-rel-entry|)
(assert (forall ((?A Bool) (?B Real) (?C Real) (?D Bool) (?E Real) )(let (($x120366 (= ?D true)))
(let (($x240300 (and |cp-rel-entry| (>= ?C 8466.0) (<= ?C 8466.0) (>= ?B 0.0) (<= ?B 0.0) $x120366 (= ?A (= ?E 0.0)))))
(=> $x240300 (|cp-rel-bb.outer| ?A ?B ?C)))))
)
(assert (forall ((?A Bool) (?B Real) (?C Real) (?D Real) (?E Real) (?F Real) (?G Bool) (?H Bool) (?I Bool) (?J Bool) (?K Bool) (?L Bool) (?M Bool) (?N Bool) (?O Bool) (?P Bool) (?Q Bool) (?R Bool) (?S Bool) (?T Bool) (?U Bool) (?V Bool) (?W Bool) (?X Bool) (?Y Bool) (?Z Bool) (?A1 Bool) (?B1 Bool) (?C1 Bool) (?D1 Bool) (?E1 Bool) (?F1 Bool) (?G1 Bool) (?H1 Bool) (?I1 Bool) (?J1 Bool) (?K1 Bool) (?L1 Bool) (?M1 Bool) (?N1 Bool) (?O1 Bool) (?P1 Bool) (?Q1 Bool) (?R1 Bool) (?S1 Bool) (?T1 Bool) (?U1 Real) (?V1 Real) (?W1 Bool) (?X1 Real) (?Y1 Real) (?Z1 Bool) (?A2 Bool) (?B2 Bool) )(let (($x583512 (not ?N)))
(let (($x266353 (or $x583512 ?O)))
(let (($x131750 (not ?S)))
(let (($x506987 (or $x131750 (and ?N ?T ?U))))
(let (($x582805 (or $x131750 ?T)))
(let (($x239891 (not ?V)))
(let (($x102172 (or $x239891 ?W)))
(let (($x280223 (not ?N1)))
(let (($x430322 (not ?S1)))
(let (($x304412 (or $x430322 (and ?N1 ?T1 (<= ?U1 ?V1) (>= ?U1 ?V1)) (and ?I1 ?W1 ?P1 (<= ?U1 5.0) (>= ?U1 5.0)))))
(let (($x857182 (and ?X (not ?A) (<= ?B ?Y1) (>= ?B ?Y1) (<= ?C 8656.0) (>= ?C 8656.0))))
(let (($x583329 (and ?G1 (<= ?B ?Y1) (>= ?B ?Y1) (<= ?C 8512.0) (>= ?C 8512.0))))
(let (($x334885 (and ?A1 ?A (<= ?B ?X1) (>= ?B ?X1) (<= ?C 8656.0) (>= ?C 8656.0))))
(let (($x476178 (and ?S1 (not ?A) (<= ?B ?U1) (>= ?B ?U1) (<= ?C 8640.0) (>= ?C 8640.0))))
(let (($x315875 (and (|cp-rel-bb.us| ?A ?D ?E ?F) (= ?P1 (= ?V1 4.0)) (= ?K1 (not (<= 5.0 ?V1))) (= ?V1 (ite ?B2 3.0 ?D)) (= ?B2 (= ?D 2.0)) (= ?X1 (ite ?A2 4.0 ?D)) (= ?A2 (= ?D 3.0)) (= ?Y1 (ite ?Z1 2.0 ?D)) (= ?Z1 (= ?D 0.0)) (= ?F1 (= ?F 8656.0)) (= ?C1 (= ?F 8640.0)) (= ?Z (= ?F 8466.0)) (= ?U (not (<= 8656.0 ?F))) (= ?R (not (<= 8512.0 ?F))) (= ?M (not (<= 8640.0 ?F))) (= ?J (not (<= 8513.0 ?F))) (or $x476178 $x334885 $x583329 $x857182) (or $x430322 (and ?T1 (not ?W1)) (and ?W1 (not ?T1))) $x304412 (or $x280223 (and ?O1 (not ?Q1)) (and ?Q1 (not ?O1))) (or $x280223 (and ?I1 ?O1 (not ?P1)) (and ?L1 ?Q1 (not ?R1))) (or (not ?L1) ?M1) (or (not ?L1) (and ?D1 ?M1 (not ?K1))) (or (not ?I1) ?J1) (or (not ?I1) (and ?D1 ?J1 ?K1)) (or (not ?G1) ?H1) (or (not ?G1) (and ?X ?H1 ?A)) (or (not ?D1) ?E1) (or (not ?D1) (and ?V ?E1 ?F1)) (or (not ?A1) ?B1) (or (not ?A1) (and ?S ?B1 ?C1)) (or (not ?X) ?Y) (or (not ?X) (and ?P ?Y ?Z)) $x102172 (or $x239891 (and ?N ?W (not ?U))) $x582805 $x506987 (or (not ?P) ?Q) (or (not ?P) (and ?K ?Q ?R)) $x266353 (or $x583512 (and ?G ?O (not ?M))) (or (not ?K) ?L) (or (not ?K) (and ?G ?L ?M)) (or (not ?G) ?I) (or (not ?G) (and ?H ?I (not ?J))) (= ?R1 (= ?V1 5.0)))))
(=> $x315875 (|cp-rel-bb.outer| ?A ?B ?C))))))))))))))))))
)
(assert (forall ((?A Bool) (?B Real) (?C Real) (?D Real) (?E Real) (?F Bool) (?G Bool) (?H Bool) (?I Bool) (?J Bool) (?K Bool) (?L Bool) (?M Bool) (?N Bool) (?O Bool) (?P Bool) (?Q Bool) (?R Bool) (?S Bool) (?T Bool) (?U Bool) (?V Bool) (?W Real) (?X Real) (?Y Bool) (?Z Real) (?A1 Real) (?B1 Bool) (?C1 Bool) (?D1 Bool) (?E1 Real) (?F1 Bool) (?G1 Bool) (?H1 Bool) (?I1 Bool) (?J1 Bool) (?K1 Bool) (?L1 Bool) (?M1 Bool) (?N1 Bool) (?O1 Bool) (?P1 Bool) (?Q1 Bool) (?R1 Bool) (?S1 Bool) (?T1 Bool) (?U1 Bool) (?V1 Bool) (?W1 Bool) (?X1 Bool) (?Y1 Bool) )(let (($x419555 (= ?T (= ?X 5.0))))
(let (($x631169 (not ?J1)))
(let (($x916335 (or $x631169 ?K1)))
(let (($x456083 (not ?L1)))
(let (($x280753 (or $x456083 ?M1)))
(let (($x135210 (not ?O1)))
(let (($x550335 (or $x135210 ?P1)))
(let (($x873687 (not ?R1)))
(let (($x488622 (or $x873687 ?S1)))
(let (($x583512 (not ?K)))
(let (($x266353 (or $x583512 ?L)))
(let (($x377717 (not ?N)))
(let (($x27416 (or $x377717 ?O)))
(let (($x131750 (not ?P)))
(let (($x202984 (or $x131750 (and ?K ?Q (not ?R)) (and ?N ?S (not ?T)))))
(let (($x846882 (or $x131750 (and ?Q (not ?S)) (and ?S (not ?Q)))))
(let (($x149813 (not ?U)))
(let (($x196011 (or $x149813 (and ?P ?V (<= ?W ?X) (>= ?W ?X)) (and ?K ?Y ?R (<= ?W 5.0) (>= ?W 5.0)))))
(let (($x235006 (or $x149813 (and ?V (not ?Y)) (and ?Y (not ?V)))))
(let (($x860613 (and ?F (not ?A) (<= ?B ?A1) (>= ?B ?A1) (<= ?C 8656.0) (>= ?C 8656.0))))
(let (($x412054 (and ?I (<= ?B ?A1) (>= ?B ?A1) (<= ?C 8512.0) (>= ?C 8512.0))))
(let (($x646858 (and ?G ?A (<= ?B ?Z) (>= ?B ?Z) (<= ?C 8656.0) (>= ?C 8656.0))))
(let (($x626266 (and ?U (not ?A) (<= ?B ?W) (>= ?B ?W) (<= ?C 8640.0) (>= ?C 8640.0))))
(let (($x189430 (= ?M (not (<= 5.0 ?X)))))
(let (($x607308 (= ?R (= ?X 4.0))))
(let (($x259919 (and (|cp-rel-NodeBlock32| ?A ?D ?E ?E1) $x607308 $x189430 (= ?X (ite ?D1 3.0 ?D)) (= ?D1 (= ?D 2.0)) (= ?Z (ite ?C1 4.0 ?D)) (= ?C1 (= ?D 3.0)) (= ?A1 (ite ?B1 2.0 ?D)) (= ?B1 (= ?D 0.0)) (= ?Y1 (= ?E1 8656.0)) (= ?W1 (= ?E1 8640.0)) (= ?U1 (= ?E1 8466.0)) (= ?Q1 (not (<= 8656.0 ?E1))) (= ?N1 (not (<= 8512.0 ?E1))) (= ?I1 (not (<= 8640.0 ?E1))) (or $x626266 $x646858 $x412054 $x860613) $x235006 $x196011 $x846882 $x202984 $x27416 (or $x377717 (and ?H ?O (not ?M))) $x266353 (or $x583512 (and ?H ?L ?M)) (or (not ?I) ?J) (or (not ?I) (and ?F ?J ?A)) (or (not ?H) ?X1) (or (not ?H) (and ?R1 ?X1 ?Y1)) (or (not ?G) ?V1) (or (not ?G) (and ?O1 ?V1 ?W1)) (or (not ?F) ?T1) (or (not ?F) (and ?L1 ?T1 ?U1)) $x488622 (or $x873687 (and ?J1 ?S1 (not ?Q1))) $x550335 (or $x135210 (and ?J1 ?P1 ?Q1)) $x280753 (or $x456083 (and ?F1 ?M1 ?N1)) $x916335 (or $x631169 (and ?G1 ?K1 (not ?I1))) (or (not ?F1) ?H1) (or (not ?F1) (and ?G1 ?H1 ?I1)) $x419555)))
(=> $x259919 (|cp-rel-bb.outer| ?A ?B ?C)))))))))))))))))))))))))))))
)
(assert (forall ((?A Bool) (?B Real) (?C Real) (?D Real) (?E Bool) (?F Bool) )(let (($x180473 (= ?F (not (<= ?B 2.0)))))
(let (($x120366 (= ?E true)))
(let (($x839076 (= ?F true)))
(let (($x553786 (<= ?D ?C)))
(let (($x123461 (>= ?D ?C)))
(let (($x393451 (|cp-rel-bb.outer| ?A ?B ?C)))
(=> (and $x393451 $x123461 $x553786 $x839076 $x120366 $x180473) (|cp-rel-bb.us| ?A ?B ?C ?D)))))))))
)
(assert (forall ((?A Bool) (?B Real) (?C Real) (?D Real) (?E Bool) (?F Bool) (?G Bool) (?H Bool) (?I Bool) (?J Bool) (?K Bool) (?L Bool) (?M Real) (?N Bool) (?O Bool) (?P Bool) (?Q Bool) (?R Bool) (?S Real) (?T Bool) (?U Real) )(let (($x597919 (= ?S (ite ?T 8640.0 8466.0))))
(let (($x556526 (not ?I)))
(let (($x839433 (or $x556526 ?J)))
(let (($x873687 (not ?N)))
(let (($x488622 (or $x873687 ?O)))
(let (($x863734 (not ?P)))
(let (($x404240 (or $x863734 (and ?N ?Q ?R))))
(let (($x211260 (or $x863734 ?Q)))
(let (($x847030 (= ?P true)))
(let (($x197117 (<= ?M ?S)))
(let (($x867318 (>= ?M ?S)))
(let (($x772943 (= ?T (= ?U 0.0))))
(let (($x557658 (and (|cp-rel-bb.us| ?A ?B ?C ?D) $x772943 (= ?R (= ?D 8512.0)) (= ?L (not (<= 8512.0 ?D))) (= ?K (not (<= 8640.0 ?D))) (= ?H (not (<= 8513.0 ?D))) $x867318 $x197117 $x847030 $x211260 $x404240 $x488622 (or $x873687 (and ?I ?O (not ?L))) $x839433 (or $x556526 (and ?E ?J ?K)) (or (not ?E) ?G) (or (not ?E) (and ?F ?G (not ?H))) $x597919)))
(=> $x557658 (|cp-rel-bb.us| ?A ?B ?C ?M))))))))))))))))
)
(assert (forall ((?A Bool) (?B Real) (?C Real) (?D Real) (?E Bool) (?F Bool) )(let (($x180473 (= ?F (not (<= ?B 2.0)))))
(let (($x120366 (= ?E true)))
(let (($x553786 (<= ?D ?C)))
(let (($x123461 (>= ?D ?C)))
(let (($x393451 (|cp-rel-bb.outer| ?A ?B ?C)))
(=> (and $x393451 $x123461 $x553786 (not (= ?F true)) $x120366 $x180473) (|cp-rel-NodeBlock32| ?A ?B ?C ?D))))))))
)
(assert (forall ((?A Bool) (?B Real) (?C Real) (?D Real) (?E Bool) (?F Bool) (?G Bool) (?H Bool) (?I Bool) (?J Real) (?K Bool) (?L Bool) (?M Bool) (?N Bool) (?O Bool) (?P Real) (?Q Bool) (?R Real) )(let (($x597919 (= ?P (ite ?Q 8640.0 8466.0))))
(let (($x873687 (not ?K)))
(let (($x488622 (or $x873687 ?L)))
(let (($x863734 (not ?M)))
(let (($x404240 (or $x863734 (and ?K ?N ?O))))
(let (($x211260 (or $x863734 ?N)))
(let (($x847030 (= ?M true)))
(let (($x197117 (<= ?J ?P)))
(let (($x867318 (>= ?J ?P)))
(let (($x772943 (= ?Q (= ?R 0.0))))
(let (($x420878 (and (|cp-rel-NodeBlock32| ?A ?B ?C ?D) $x772943 (= ?O (= ?D 8512.0)) (= ?I (not (<= 8512.0 ?D))) (= ?H (not (<= 8640.0 ?D))) $x867318 $x197117 $x847030 $x211260 $x404240 $x488622 (or $x873687 (and ?E ?L (not ?I))) (or (not ?E) ?G) (or (not ?E) (and ?F ?G ?H)) $x597919)))
(=> $x420878 (|cp-rel-NodeBlock32| ?A ?B ?C ?J))))))))))))))
)
(assert (forall ((?A Bool) (?B Real) (?C Real) (?D Real) (?E Bool) (?F Bool) (?G Bool) (?H Bool) (?I Bool) (?J Bool) (?K Bool) (?L Bool) (?M Bool) (?N Bool) (?O Bool) (?P Bool) (?Q Bool) (?R Bool) (?S Bool) (?T Bool) (?U Bool) (?V Bool) (?W Bool) (?X Bool) (?Y Bool) (?Z Bool) (?A1 Bool) (?B1 Bool) (?C1 Bool) (?D1 Bool) (?E1 Bool) (?F1 Bool) (?G1 Bool) (?H1 Bool) (?I1 Bool) (?J1 Bool) (?K1 Bool) (?L1 Bool) (?M1 Bool) (?N1 Bool) (?O1 Real) (?P1 Real) (?Q1 Bool) (?R1 Real) (?S1 Bool) (?T1 Bool) (?U1 Bool) (?V1 Bool) (?W1 Bool) )(let (($x583512 (not ?I)))
(let (($x266353 (or $x583512 ?J)))
(let (($x377717 (not ?L)))
(let (($x27416 (or $x377717 ?M)))
(let (($x131750 (not ?N)))
(let (($x506987 (or $x131750 (and ?I ?O ?P))))
(let (($x582805 (or $x131750 ?O)))
(let (($x568271 (not ?U1)))
(let (($x624861 (or $x568271 ?V1)))
(let (($x239891 (not ?Q)))
(let (($x102172 (or $x239891 ?R)))
(let (($x405911 (not ?F1)))
(let (($x312664 (or $x405911 ?G1)))
(let (($x631169 (not ?H1)))
(let (($x135210 (not ?M1)))
(let (($x388211 (or $x135210 (and ?H1 ?N1 (<= ?O1 ?P1) (>= ?O1 ?P1)) (and ?C1 ?Q1 ?J1 (<= ?O1 5.0) (>= ?O1 5.0)))))
(let (($x387119 (or (and ?M1 ?A) (and ?W (not ?A)) (and ?N (not ?V)) (and ?U1 (not ?W1)) (and ?Q (not ?Y)) (and ?T (not ?B1)))))
(let (($x325125 (and (|cp-rel-bb.us| ?A ?B ?C ?D) (= ?J1 (= ?P1 4.0)) (= ?E1 (not (<= 5.0 ?P1))) (= ?P1 (ite ?T1 3.0 ?B)) (= ?T1 (= ?B 2.0)) (= ?R1 (ite ?S1 4.0 ?B)) (= ?S1 (= ?B 3.0)) (= ?B1 (= ?D 8656.0)) (= ?Y (= ?D 8640.0)) (= ?W1 (= ?D 8512.0)) (= ?V (= ?D 8466.0)) (= ?S (not (<= 8656.0 ?D))) (= ?P (not (<= 8512.0 ?D))) (= ?K (not (<= 8640.0 ?D))) (= ?H (not (<= 8513.0 ?D))) $x387119 (or $x135210 (and ?N1 (not ?Q1)) (and ?Q1 (not ?N1))) $x388211 (or $x631169 (and ?I1 (not ?K1)) (and ?K1 (not ?I1))) (or $x631169 (and ?C1 ?I1 (not ?J1)) (and ?F1 ?K1 (not ?L1))) $x312664 (or $x405911 (and ?Z ?G1 (not ?E1))) (or (not ?C1) ?D1) (or (not ?C1) (and ?Z ?D1 ?E1)) (or (not ?Z) ?A1) (or (not ?Z) (and ?T ?A1 ?B1)) (or (not ?W) ?X) (or (not ?W) (and ?Q ?X ?Y)) (or (not ?T) ?U) (or (not ?T) (and ?L ?U (not ?S))) $x102172 (or $x239891 (and ?L ?R ?S)) $x624861 (or $x568271 (and ?I ?V1 (not ?P))) $x582805 $x506987 $x27416 (or $x377717 (and ?E ?M (not ?K))) $x266353 (or $x583512 (and ?E ?J ?K)) (or (not ?E) ?G) (or (not ?E) (and ?F ?G (not ?H))) (= ?L1 (= ?P1 5.0)))))
(=> $x325125 (|cp-rel-end| ?A ?B ?C)))))))))))))))))))))
)
(assert (forall ((?A Bool) (?B Real) (?C Real) (?D Bool) (?E Bool) (?F Bool) (?G Bool) (?H Bool) (?I Bool) (?J Bool) (?K Bool) (?L Bool) (?M Bool) (?N Bool) (?O Bool) (?P Bool) (?Q Bool) (?R Real) (?S Real) (?T Bool) (?U Real) (?V Bool) (?W Bool) (?X Real) (?Y Bool) (?Z Bool) (?A1 Bool) (?B1 Bool) (?C1 Bool) (?D1 Bool) (?E1 Bool) (?F1 Bool) (?G1 Bool) (?H1 Bool) (?I1 Bool) (?J1 Bool) (?K1 Bool) (?L1 Bool) (?M1 Bool) (?N1 Bool) (?O1 Bool) (?P1 Bool) (?Q1 Bool) (?R1 Bool) (?S1 Bool) (?T1 Bool) )(let (($x419555 (= ?O (= ?S 5.0))))
(let (($x405911 (not ?C1)))
(let (($x312664 (or $x405911 ?D1)))
(let (($x631169 (not ?E1)))
(let (($x916335 (or $x631169 ?F1)))
(let (($x568271 (not ?R1)))
(let (($x624861 (or $x568271 ?S1)))
(let (($x556526 (not ?H1)))
(let (($x839433 (or $x556526 ?I1)))
(let (($x583512 (not ?F)))
(let (($x266353 (or $x583512 ?G)))
(let (($x377717 (not ?I)))
(let (($x27416 (or $x377717 ?J)))
(let (($x131750 (not ?K)))
(let (($x202984 (or $x131750 (and ?F ?L (not ?M)) (and ?I ?N (not ?O)))))
(let (($x846882 (or $x131750 (and ?L (not ?N)) (and ?N (not ?L)))))
(let (($x149813 (not ?P)))
(let (($x196011 (or $x149813 (and ?K ?Q (<= ?R ?S) (>= ?R ?S)) (and ?F ?T ?M (<= ?R 5.0) (>= ?R 5.0)))))
(let (($x235006 (or $x149813 (and ?Q (not ?T)) (and ?T (not ?Q)))))
(let (($x254421 (or (and ?P ?A) (and ?D (not ?A)) (and ?E1 (not ?M1)) (and ?R1 (not ?T1)) (and ?H1 (not ?O1)) (and ?K1 (not ?Q1)))))
(let (($x189430 (= ?H (not (<= 5.0 ?S)))))
(let (($x607308 (= ?M (= ?S 4.0))))
(let (($x368266 (and (|cp-rel-NodeBlock32| ?A ?B ?C ?X) $x607308 $x189430 (= ?S (ite ?W 3.0 ?B)) (= ?W (= ?B 2.0)) (= ?U (ite ?V 4.0 ?B)) (= ?V (= ?B 3.0)) (= ?Q1 (= ?X 8656.0)) (= ?O1 (= ?X 8640.0)) (= ?T1 (= ?X 8512.0)) (= ?M1 (= ?X 8466.0)) (= ?J1 (not (<= 8656.0 ?X))) (= ?G1 (not (<= 8512.0 ?X))) (= ?B1 (not (<= 8640.0 ?X))) $x254421 $x235006 $x196011 $x846882 $x202984 $x27416 (or $x377717 (and ?E ?J (not ?H))) $x266353 (or $x583512 (and ?E ?G ?H)) (or (not ?E) ?P1) (or (not ?E) (and ?K1 ?P1 ?Q1)) (or (not ?D) ?N1) (or (not ?D) (and ?H1 ?N1 ?O1)) (or (not ?K1) ?L1) (or (not ?K1) (and ?C1 ?L1 (not ?J1))) $x839433 (or $x556526 (and ?C1 ?I1 ?J1)) $x624861 (or $x568271 (and ?Y ?S1 (not ?G1))) $x916335 (or $x631169 (and ?Y ?F1 ?G1)) $x312664 (or $x405911 (and ?Z ?D1 (not ?B1))) (or (not ?Y) ?A1) (or (not ?Y) (and ?Z ?A1 ?B1)) $x419555)))
(=> $x368266 (|cp-rel-end| ?A ?B ?C))))))))))))))))))))))))))
)
(assert (forall ((?A Bool) (?B Real) (?C Real) (?D Bool) )(let (($x441250 (|cp-rel-end| ?A ?B ?C)))
(=> (and $x441250 (= ?D true)) $x441250)))
)
(assert (forall ((?A Bool) (?B Real) (?C Real) (?D Real) (?E Bool) (?F Bool) (?G Bool) (?H Bool) (?I Bool) (?J Bool) (?K Bool) (?L Bool) (?M Bool) (?N Bool) (?O Bool) (?P Bool) (?Q Bool) (?R Bool) (?S Bool) (?T Bool) (?U Bool) (?V Real) (?W Bool) )(let (($x456083 (not ?J)))
(let (($x280753 (or $x456083 ?K)))
(let (($x135210 (not ?M)))
(let (($x550335 (or $x135210 ?N)))
(let (($x217307 (and (|cp-rel-bb.us| ?A ?B ?C ?D) (= ?R (not (<= 5.0 ?V))) (= ?V (ite ?W 3.0 ?B)) (= ?W (= ?B 2.0)) (= ?Q (= ?D 8656.0)) (= ?L (not (<= 8656.0 ?D))) (= ?I (not (<= 8640.0 ?D))) (= ?H (not (<= 8513.0 ?D))) (or (and ?S ?U) (and ?F ?H)) (or (not ?S) ?T) (or (not ?S) (and ?O ?T (not ?R))) (or (not ?O) ?P) (or (not ?O) (and ?M ?P ?Q)) $x550335 (or $x135210 (and ?J ?N (not ?L))) $x280753 (or $x456083 (and ?E ?K (not ?I))) (or (not ?E) ?G) (or (not ?E) (and ?F ?G (not ?H))) (= ?U (= ?V 5.0)))))
(=> $x217307 |cp-rel-ERROR|)))))))
)
(assert (forall ((?A Bool) (?B Real) (?C Real) (?D Bool) (?E Bool) (?F Bool) (?G Bool) (?H Bool) (?I Real) (?J Bool) (?K Real) (?L Bool) (?M Bool) (?N Bool) (?O Bool) (?P Bool) (?Q Bool) (?R Bool) (?S Bool) (?T Bool) )(let (($x625924 (and (|cp-rel-NodeBlock32| ?A ?B ?C ?K) (= ?E (not (<= 5.0 ?I))) (= ?I (ite ?J 3.0 ?B)) (= ?J (= ?B 2.0)) (= ?T (= ?K 8656.0)) (= ?P (not (<= 8656.0 ?K))) (= ?M (not (<= 8640.0 ?K))) (= ?H true) (= ?F true) (or (not ?F) ?G) (or (not ?F) (and ?D ?G (not ?E))) (or (not ?D) ?S) (or (not ?D) (and ?Q ?S ?T)) (or (not ?Q) ?R) (or (not ?Q) (and ?N ?R (not ?P))) (or (not ?N) ?O) (or (not ?N) (and ?L ?O (not ?M))) (= ?H (= ?I 5.0)))))
(=> $x625924 |cp-rel-ERROR|)))
)
(assert (not cp-rel-ERROR))
(check-sat)
